
Welcome to IBM(R) ILOG(R) CPLEX(R) Interactive Optimizer 22.1.1.0
  with Simplex, Mixed Integer & Barrier Optimizers
5725-A06 5725-A29 5724-Y48 5724-Y49 5724-Y54 5724-Y55 5655-Y21
Copyright IBM Corp. 1988, 2022.  All Rights Reserved.

Type 'help' for a list of available commands.
Type 'help' followed by a command name for more
information on commands.

CPLEX> Selected objective sense:  MINIMIZE
Selected objective  name:  00000000
Selected RHS        name:  RHS1
Selected bound      name:  BOUND
Problem 'ee.mps' read.
Read time = 0.03 sec. (3.17 ticks)
CPLEX> New value for time limit in seconds: 7200
CPLEX> New value for parallel optimization mode: -1
CPLEX> New value for default parallel thread count: 40
CPLEX> New value for mixed integer optimality gap tolerance: 1e-13
CPLEX> Version identifier: 22.1.1.0 | 2022-11-28 | 9160aff4d
CPXPARAM_Threads                                 40
CPXPARAM_Parallel                                -1
CPXPARAM_TimeLimit                               7200
CPXPARAM_MIP_Tolerances_MIPGap                   1e-13
Found incumbent of value 0.000000 after 0.00 sec. (0.31 ticks)
Tried aggregator 2 times.
MIP Presolve eliminated 183 rows and 2745 columns.
MIP Presolve modified 6090 coefficients.
Aggregator did 713 substitutions.
Reduced MIP has 3636 rows, 7840 columns, and 28954 nonzeros.
Reduced MIP has 7840 binaries, 0 generals, 0 SOSs, and 0 indicators.
Presolve time = 0.07 sec. (69.14 ticks)
Probing time = 0.03 sec. (5.33 ticks)
Tried aggregator 1 time.
Detecting symmetries...
Reduced MIP has 3636 rows, 7840 columns, and 28954 nonzeros.
Reduced MIP has 7840 binaries, 0 generals, 0 SOSs, and 0 indicators.
Presolve time = 0.03 sec. (22.07 ticks)
Probing time = 0.02 sec. (5.12 ticks)
Clique table members: 18788.
MIP emphasis: balance optimality and feasibility.
MIP search method: dynamic search.
Parallel mode: opportunistic, using up to 40 threads.
Root relaxation solution time = 0.17 sec. (127.33 ticks)

        Nodes                                         Cuts/
   Node  Left     Objective  IInf  Best Integer    Best Bound    ItCnt     Gap

*     0+    0                            0.0000  -1.54000e+13              --- 
*     0+    0                      -8.19000e+12  -1.54000e+13            88.03%
      0     0  -1.53900e+13    91  -8.19000e+12  -1.53900e+13     2828   87.91%
*     0+    0                      -1.53900e+13  -1.53900e+13             0.00%
      0     0  -1.53900e+13   159  -1.53900e+13      Cuts: 92     3258    0.00%
*     0+    0                      -1.53900e+13  -1.53900e+13             0.00%
      0     0  -1.53900e+13   161  -1.53900e+13      Cuts: 80     4473    0.00%
*     0+    0                      -1.53900e+13  -1.53900e+13             0.00%
      0     8    infeasible        -1.53900e+13  -1.53900e+13     7380    0.00%
Elapsed time = 2.52 sec. (1399.36 ticks, tree = 0.02 MB, solutions = 6)
    722    59        cutoff        -1.53900e+13  -1.53900e+13    22129    0.00%
   1686    46        cutoff        -1.53900e+13  -1.53900e+13   133581    0.00%
   2232    49  -1.53900e+13   165  -1.53900e+13  -1.53900e+13   172548    0.00%
   2710    49  -1.53900e+13   199  -1.53900e+13  -1.53900e+13   149576    0.00%
   2941    47  -1.53900e+13   227  -1.53900e+13  -1.53900e+13   188425    0.00%
   3212    60  -1.53900e+13   217  -1.53900e+13  -1.53900e+13   224992    0.00%
   3642    77    infeasible        -1.53900e+13  -1.53900e+13   282111    0.00%
   4124   129  -1.53900e+13   331  -1.53900e+13  -1.53900e+13   309812    0.00%
   4619   308  -1.53900e+13    64  -1.53900e+13  -1.53900e+13   420561    0.00%
   6476   418    infeasible        -1.53900e+13  -1.53900e+13   544098    0.00%
Elapsed time = 8.47 sec. (4504.47 ticks, tree = 1.13 MB, solutions = 12)
   8143   598  -1.53900e+13   101  -1.53900e+13  -1.53900e+13   756933    0.00%
   9961   695  -1.53900e+13    99  -1.53900e+13  -1.53900e+13   957303    0.00%
  11117   742  -1.53900e+13   180  -1.53900e+13  -1.53900e+13  1242508    0.00%
  12012   618  -1.53900e+13   198  -1.53900e+13  -1.53900e+13  1458690    0.00%

Performing restart 1

Repeating presolve.
Tried aggregator 2 times.
MIP Presolve eliminated 1551 rows and 3769 columns.
MIP Presolve added 20 rows and 0 columns.
MIP Presolve modified 2482 coefficients.
Aggregator did 559 substitutions.
Reduced MIP has 1500 rows, 3459 columns, and 12258 nonzeros.
Reduced MIP has 3459 binaries, 0 generals, 0 SOSs, and 0 indicators.
Presolve time = 0.06 sec. (53.98 ticks)
Tried aggregator 1 time.
MIP Presolve eliminated 2 rows and 1 columns.
Reduced MIP has 1498 rows, 3458 columns, and 12252 nonzeros.
Reduced MIP has 3458 binaries, 0 generals, 0 SOSs, and 0 indicators.
Presolve time = 0.02 sec. (12.90 ticks)
Represolve time = 0.17 sec. (108.61 ticks)
  12275     0  -1.53900e+13   187  -1.53900e+13      Cuts: 33  1614908    0.00%
  12275     0  -1.53900e+13   176  -1.53900e+13      Cuts: 15  1614961    0.00%
  12275     0  -1.53900e+13   182  -1.53900e+13      Cuts: 15  1614981    0.00%
  12275     0  -1.53900e+13   180  -1.53900e+13      Cuts: 22  1615025    0.00%
  12275     0  -1.53900e+13   202  -1.53900e+13  ZeroHalf: 15  1615073    0.00%
  12275     3    infeasible        -1.53900e+13  -1.53900e+13  1618225    0.00%
  12396     2  -1.53900e+13   210  -1.53900e+13  -1.53900e+13  1616339    0.00%

Clique cuts applied:  11
Cover cuts applied:  207
Flow cuts applied:  1
Mixed integer rounding cuts applied:  1
Zero-half cuts applied:  19
Lift and project cuts applied:  3
Gomory fractional cuts applied:  11

Root node processing (before b&c):
  Real time             =    1.66 sec. (1396.52 ticks)
Parallel b&c, 40 threads:
  Real time             =   13.82 sec. (10314.99 ticks)
  Sync time (average)   =    2.53 sec.
  Wait time (average)   =    0.08 sec.
                          ------------
Total (root+branch&cut) =   15.48 sec. (11711.51 ticks)

Solution pool: 12 solutions saved.

MIP - Integer optimal solution:  Objective = -1.5389999189e+13
Solution time =   15.61 sec.  Iterations = 1621266  Nodes = 12400
Deterministic time = 11711.55 ticks  (750.44 ticks/sec)

CPLEX> Solution 'p13' written to file 'ee.sol'.
CPLEX> 